Version identifier: 20.1.0.0 | 2020-11-10 | 9bedb6d68
CPXPARAM_Threads                                 1
CPXPARAM_TimeLimit                               7200
CPXPARAM_MIP_Tolerances_MIPGap                   0
Generic callback                                 0x60
1 of 1 MIP starts provided solutions.
MIP start 'm1' defined initial solution with objective 1121.5186.
Tried aggregator 1 time.
Reduced MIP has 1 rows, 801 columns, and 800 nonzeros.
Reduced MIP has 800 binaries, 0 generals, 0 SOSs, and 0 indicators.
Presolve time = 0.00 sec. (0.24 ticks)
Probing time = 0.00 sec. (0.09 ticks)
Tried aggregator 1 time.
Reduced MIP has 1 rows, 801 columns, and 800 nonzeros.
Reduced MIP has 800 binaries, 0 generals, 0 SOSs, and 0 indicators.
Presolve time = 0.00 sec. (0.25 ticks)
Probing time = 0.00 sec. (0.09 ticks)
MIP emphasis: balance optimality and feasibility.
MIP search method: dynamic search.
Parallel mode: none, using 1 thread.
Root relaxation solution time = 0.00 sec. (0.17 ticks)

        Nodes                                         Cuts/
   Node  Left     Objective  IInf  Best Integer    Best Bound    ItCnt     Gap

*     0+    0                         1121.5186     4368.0000           289.47%
      0     0     1488.1623     2     1121.5186     4368.0000        0  289.47%
      0     0     1374.5980     4     1121.5186 UserPurge2: 1       15   22.57%
      0     0     1326.1528     4     1121.5186 UserPurge2: 1       30   18.25%
      0     0     1233.1671     4     1121.5186 UserPurge2: 1       45    9.96%
      0     0     1207.4194     4     1121.5186 UserPurge2: 1       54    7.66%
      0     0     1206.9708     4     1121.5186 UserPurge2: 1       55    7.62%
      0     0     1188.4638     3     1121.5186 UserPurge2: 1       62    5.97%

Repeating presolve.
Tried aggregator 1 time.
MIP Presolve eliminated 0 rows and 289 columns.
Reduced MIP has 1 rows, 512 columns, and 511 nonzeros.
Reduced MIP has 511 binaries, 0 generals, 0 SOSs, and 0 indicators.
Presolve time = 0.00 sec. (0.21 ticks)
Probing time = 0.00 sec. (0.06 ticks)
Tried aggregator 1 time.
Reduced MIP has 1 rows, 512 columns, and 511 nonzeros.
Reduced MIP has 511 binaries, 0 generals, 0 SOSs, and 0 indicators.
Presolve time = 0.00 sec. (0.16 ticks)
Represolve time = 0.00 sec. (1.91 ticks)
Probing time = 0.00 sec. (0.06 ticks)
MIP emphasis: balance optimality and feasibility.
MIP search method: dynamic search.
Parallel mode: none, using 1 thread.
Root relaxation solution time = 0.00 sec. (0.85 ticks)

        Nodes                                         Cuts/
   Node  Left     Objective  IInf  Best Integer    Best Bound    ItCnt     Gap

*     0+    0                         1121.5186     1188.4638             5.97%
      0     0     1188.4638     3     1121.5186     1188.4638       86    5.97%
      0     0     1180.5059     3     1121.5186 UserPurge2: 1       98    5.26%
      0     0     1180.3383     4     1121.5186 UserPurge2: 1      100    5.24%
      0     0     1172.7228     4     1121.5186 UserPurge2: 1      112    4.57%
      0     2     1172.7228     4     1121.5186     1172.6984      112    4.56%
Elapsed time = 12.14 sec. (21.96 ticks, tree = 0.01 MB, solutions = 1)
      2     2     1127.3411    14     1121.5186     1127.3410     3729    0.52%
      3     3     1127.2703    12     1121.5186     1127.3410     4130    0.52%
      4     4     1126.9546     9     1121.5186     1127.3410     4912    0.52%
      5     5     1126.7392    14     1121.5186     1127.3410     5843    0.52%
*     9     4      integral     0     1121.5963     1127.3410     5974    0.51%
*    13     2      integral     0     1121.6285     1126.7376     6256    0.46%
*    14     1      integral     0     1121.8310     1126.7376     6261    0.44%
     15     2     1126.5012    11     1121.8310     1126.4986     7787    0.42%
     16     3     1126.2335     9     1121.8310     1126.4922     9420    0.42%
     17     4     1125.6587     7     1121.8310     1126.4922    10376    0.42%
     18     5     1125.3509     7     1121.8310     1126.4922    10887    0.42%
     20     7     1124.5459     8     1121.8310     1126.4922    11905    0.42%
Elapsed time = 1014.55 sec. (12005.62 ticks, tree = 0.10 MB, solutions = 4)
     21     8     1124.2678     7     1121.8310     1126.4922    12669    0.42%
     22     9     1124.2278     8     1121.8310     1126.4922    13023    0.42%
     23    10     1123.9145    10     1121.8310     1126.4922    13663    0.42%
     24    11     1123.8684     9     1121.8310     1126.4922    13997    0.42%
     26    13     1123.1340     9     1121.8310     1126.4922    14693    0.42%
     27    14     1122.8589     9     1121.8310     1126.4922    15963    0.42%
     29    16     1122.3525     6     1121.8310     1126.4922    16525    0.42%
*    32    13      integral     0     1122.0556     1126.4922    16738    0.40%
     40     5        cutoff           1122.0556     1123.8672    17387    0.16%

User cuts applied:  4720

Root node processing (before b&c):
  Real time             =   12.14 sec. (28.93 ticks)
Sequential b&c:
  Real time             = 1670.62 sec. (28375.02 ticks)
                          ------------
Total (root+branch&cut) = 1682.77 sec. (28403.96 ticks)
@Parameters: 
is_S_cut                                true
is_add_all_yinF                         true
is_start_value                          true
is_usercut                              true
is_visualization                        false
uc_only_rootnode                        false

data                                    Qi
fn                                      data/Qi/instance_800_800.csv
mode                                    NewSubmodular
solver                                  cplex

p                                       2
r                                       10

EPS                                     1.0e-06
EPS_vio                                 1.0e-04
beta                                    0.10
gap                                     0.00
nodelimit                               Inf
timelimit                               7200.00


@PrintInfos
ItCnt: 17556
Current gap: 0.00 %
Termination Status: OPTIMAL
Primal Status: FEASIBLE_POINT
Solve Time: 1682.77 sec
Objective Value: 1122.055633
Number of Nodes:     46

CutInfo: [phase] num / time (sec) 
ZLP             [phase1]     0 / 0.00 [rLC]     0 / 0.00 [rUC]     0 / 0.00 [sLC]     0 / 0.00 [sUC]     0 / 0.00 
OldSubmodular   [phase1]     0 / 0.00 [rLC]     0 / 0.00 [rUC]     0 / 0.00 [sLC]     0 / 0.00 [sUC]     0 / 0.00 
NewSubmodular   [phase1]     0 / 0.00 [rLC]    17 / 8.10 [rUC]    21 / 2.05 [sLC]     0 / 8.77 [sUC]  4713 / 1637.56 
PMP             [phase1]     0 / 0.00 [rLC]     3 / 5.46 [rUC]     0 / 0.00 [sLC]     4 / 8.66 [sUC]    65 / 253.34 
Separation Round: [phase1] 0  [rLC] 14  [rUC] 11  [sLC] 4  [sUC] 1066
Root Best Bound 1127.341027
Root Best Integer: 1121.518604
Best Bound: 1122.055633
Best Integer: 1122.055633

